
Gurobi 8.1.1 (win64) logging started 11/24/19 12:59:55

Changed value of parameter LogFile to logs/full/ip/full-06-15-2.log
   Prev: gurobi.log  Default: 
Changed value of parameter LogToConsole to 0
   Prev: 1  Min: 0  Max: 1  Default: 1
Changed value of parameter TimeLimit to 3600.0
   Prev: 1e+100  Min: 0.0  Max: 1e+100  Default: 1e+100
Optimize a model with 3870 rows, 1832 columns and 14790 nonzeros
Variable types: 0 continuous, 1832 integer (1816 binary)
Coefficient statistics:
  Matrix range     [1e+00, 3e+02]
  Objective range  [1e+00, 1e+00]
  Bounds range     [1e+00, 1e+00]
  RHS range        [1e+00, 4e+02]
Presolve removed 3 rows and 3 columns
Presolve time: 0.10s
Presolved: 3867 rows, 1829 columns, 14781 nonzeros
Variable types: 0 continuous, 1829 integer (1813 binary)

Root relaxation: objective 4.333333e+00, 868 iterations, 0.04 seconds

    Nodes    |    Current Node    |     Objective Bounds      |     Work
 Expl Unexpl |  Obj  Depth IntInf | Incumbent    BestBd   Gap | It/Node Time

     0     0    4.33333    0  154          -    4.33333      -     -    0s
H    0     0                      16.0000000    4.33333  72.9%     -    0s
     0     0    6.00000    0   33   16.00000    6.00000  62.5%     -    0s
     0     0    6.00000    0   22   16.00000    6.00000  62.5%     -    0s
     0     0    6.00000    0   22   16.00000    6.00000  62.5%     -    0s
     0     0    6.00000    0   28   16.00000    6.00000  62.5%     -    0s
     0     0    6.00000    0   32   16.00000    6.00000  62.5%     -    0s
     0     0    6.00000    0   26   16.00000    6.00000  62.5%     -    0s
     0     0    6.00000    0   23   16.00000    6.00000  62.5%     -    1s
     0     0    6.00000    0   26   16.00000    6.00000  62.5%     -    1s
     0     0    6.00000    0   26   16.00000    6.00000  62.5%     -    1s
     0     0    6.00000    0   21   16.00000    6.00000  62.5%     -    1s
H    0     0                      15.0000000    6.00000  60.0%     -    1s
H    0     0                      14.0000000    6.00000  57.1%     -    1s
H    0     0                       6.0000000    6.00000  0.00%     -    1s
     0     0    6.00000    0   21    6.00000    6.00000  0.00%     -    1s

Cutting planes:
  Gomory: 4
  MIR: 3
  Mod-K: 2

Explored 1 nodes (9199 simplex iterations) in 1.63 seconds
Thread count was 4 (of 4 available processors)

Solution count 4: 6 14 15 16 

Optimal solution found (tolerance 1.00e-04)
Best objective 6.000000000000e+00, best bound 6.000000000000e+00, gap 0.0000%
